data/CVRPLIB/Vrp-Set-XML100/instances/XML100_2113_13.vrp
NAME : XML100_2113_13
COMMENT : Generated by Queiroga, Sadykov, Uchoa, and Vidal (2021)
TYPE : CVRP
DIMENSION : 101
EDGE_WEIGHT_TYPE : EUC_2D
CAPACITY : 10
NODE_COORD_SECTION
1    500  500 
2    466  876 
3    966  414 
4    869  673 
5    163  753 
6    197  862 
7    555  279 
8    239  784 
9    965  270 
10   367  690 
11   733  932 
12   335  144 
13   545  675 
14   562  994 
15   831  484 
16   869  689 
17   401  544 
18   651  161 
19   445  728 
20   459  536 
21   122  930 
22   544  413 
23   424  379 
24   537  10  
25   157  466 
26   761  612 
27   149  928 
28   147  839 
29   555  189 
30   941  518 
31   696  46  
32   484  12  
33   448  227 
34   82   258 
35   865  237 
36   18   315 
37   606  456 
38   271  605 
39   793  714 
40   723  550 
41   191  649 
42   426  496 
43   180  958 
44   338  442 
45   254  522 
46   542  639 
47   889  899 
48   982  341 
49   289  770 
50   674  715 
51   805  462 
52   988  117 
53   929  379 
54   237  767 
55   930  443 
56   550  389 
57   977  147 
58   955  340 
59   61   351 
60   786  597 
61   570  486 
62   857  816 
63   128  500 
64   689  875 
65   383  845 
66   400  186 
67   250  39  
68   468  16  
69   639  978 
70   619  904 
71   487  582 
72   838  500 
73   51   3   
74   208  313 
75   658  643 
76   55   179 
77   738  925 
78   504  776 
79   339  436 
80   799  397 
81   991  793 
82   729  675 
83   447  939 
84   236  865 
85   514  159 
86   219  202 
87   361  875 
88   828  846 
89   719  210 
90   249  303 
91   135  182 
92   728  32  
93   374  991 
94   186  25  
95   352  721 
96   976  950 
97   291  188 
98   110  21  
99   752  504 
100  645  906 
101  5    289 
DEMAND_SECTION
1    0   
2    1   
3    1   
4    1   
5    1   
6    1   
7    1   
8    1   
9    1   
10   1   
11   1   
12   1   
13   1   
14   1   
15   1   
16   1   
17   1   
18   1   
19   1   
20   1   
21   1   
22   1   
23   1   
24   1   
25   1   
26   1   
27   1   
28   1   
29   1   
30   1   
31   1   
32   1   
33   1   
34   1   
35   1   
36   1   
37   1   
38   1   
39   1   
40   1   
41   1   
42   1   
43   1   
44   1   
45   1   
46   1   
47   1   
48   1   
49   1   
50   1   
51   1   
52   1   
53   1   
54   1   
55   1   
56   1   
57   1   
58   1   
59   1   
60   1   
61   1   
62   1   
63   1   
64   1   
65   1   
66   1   
67   1   
68   1   
69   1   
70   1   
71   1   
72   1   
73   1   
74   1   
75   1   
76   1   
77   1   
78   1   
79   1   
80   1   
81   1   
82   1   
83   1   
84   1   
85   1   
86   1   
87   1   
88   1   
89   1   
90   1   
91   1   
92   1   
93   1   
94   1   
95   1   
96   1   
97   1   
98   1   
99   1   
100  1   
101  1   
DEPOT_SECTION
1
-1
EOF
