data/CVRPLIB/Vrp-Set-XML100/solutions/XML100_2113_13.sol
Route #1: 55 6 28 84 23 31 67 65 32 22
Route #2: 74 38 61 87 46 95 80 15 3 59
Route #3: 9 94 48 7 53 4 40 37 16 41
Route #4: 18 64 86 92 42 26 20 27 5 83
Route #5: 77 1 82 13 68 10 76 63 99 69
Route #6: 96 11 66 93 97 72 75 90 85 89
Route #7: 43 78 73 33 100 35 58 62 24 44
Route #8: 50 52 57 47 2 54 29 71 14 98
Route #9: 19 70 45 12 49 81 25 39 36 60
Route #10: 79 34 8 56 51 91 30 17 88 21
Cost 12747
